proyfinal/src/viki/013/experimentInOfficeAgust.take6.output/88e68f89-b775-481e-8e82-c35c20bb90bf.als.dat
{'cnf.clauses': '118081',
 'cnf.totvars': '69608',
 'conflict literals': '15',
 'conflicts': '9',
 'decisions': '4420',
 'memused.mb': '17.60',
 'outcome': 'UNSAT',
 'propagations': '25111',
 'restarts': '1',
 'solver.msecs': 37,
 'task.msecs': 91}
