proyfinal/src/viki/013/experimentInOfficeAgust.take6.output/88e68f89-b775-481e-8e82-c35c20bb90bf.als.out
Reading from standard input... Use '--help' for help.
============================[ Problem Statistics ]=============================
|                                                                             |
|  Number of variables:         69608                                         |
|  Number of clauses:          118081                                         |
|  Parse time:                   0.03 s                                       |
|                                                                             |
============================[ Search Statistics ]==============================
| Conflicts |          ORIGINAL         |          LEARNT          | Progress |
|           |    Vars  Clauses Literals |    Limit  Clauses Lit/Cl |          |
===============================================================================
===============================================================================
restarts              : 1
conflicts             : 9              (240 /sec)
decisions             : 4420           (0.00 % random) (117983 /sec)
propagations          : 25111          (670288 /sec)
conflict literals     : 15             (0.00 % deleted)
Memory used           : 17.60 MB
CPU time              : 0.037463 s

UNSATISFIABLE
